n_res = 4;
rc = [ 10, 12, 5, 11 ];
n_tasks = 30;
d = [ 7, 10, 3, 10, 5, 2, 10, 9, 9, 8, 2, 4, 8, 1, 1, 9, 7, 2, 3, 1, 8, 4, 3, 8, 10, 5, 1, 8, 1, 7 ];
rr = [| 7, 0, 0, 0, 0, 0, 0, 0, 0, 0, 0, 0, 0, 0, 0, 0, 0, 10, 0, 0, 0, 10, 0, 0, 10, 0, 0, 0, 0, 5
      | 0, 3, 0, 9, 0, 3, 0, 0, 0, 0, 1, 9, 1, 2, 0, 0, 3, 0, 1, 0, 0, 0, 0, 0, 0, 0, 10, 5, 0, 0
      | 0, 0, 0, 0, 0, 0, 0, 0, 3, 2, 0, 0, 0, 0, 0, 0, 0, 0, 0, 0, 0, 0, 0, 0, 0, 3, 0, 0, 5, 0
      | 0, 0, 10, 0, 4, 0, 7, 3, 0, 0, 0, 0, 0, 0, 8, 3, 0, 0, 0, 6, 4, 0, 1, 5, 0, 0, 0, 0, 0, 0 |];
suc = [ { 2 }, 
        { 3 }, 
        { 4 }, 
        { 5 }, 
        { 6 }, 
        { 7 }, 
        { 8 }, 
        { 9 }, 
        { 10 }, 
        { 11 }, 
        { 12 }, 
        { 13 }, 
        { 14 }, 
        { 15 }, 
        { 16 }, 
        { 17 }, 
        { 18 }, 
        { 19 }, 
        { 20 }, 
        { 21 }, 
        { 22 }, 
        { 23 }, 
        { 24 }, 
        { 25 }, 
        { 26 }, 
        { 27 }, 
        { 28 }, 
        { 29 }, 
        { 30 }, 
        {  }]; 
